Starting solution of the Linear programming relaxation problem using Primal Simplex

Coin0506I Presolve 182508 (-182427) rows, 3240 (0) columns and 371334 (-364854) elements
Clp0030I 22 infeas 130.87152, obj 62.226134 - mu 0.45692739, its 105, 62 interior
Clp0030I 31 infeas 17.231354, obj 907.09821 - mu 0.01691816, its 105, 149 interior
Clp0030I 39 infeas 0.27548232, obj 1128.1239 - mu 0.0018794197, its 105, 248 interior
Clp0030I 47 infeas 0.032860249, obj 1129.9509 - mu 6.9587255e-05, its 105, 409 interior
Clp0030I 54 infeas 0.0015970069, obj 1129.8105 - mu 7.7303709e-06, its 105, 519 interior
Clp1000I sum of infeasibilities 7.80784e-05 - average 4.27808e-10, 2707 fixed columns
Coin0506I Presolve 3993 (-178515) rows, 533 (-2707) columns and 8890 (-362444) elements
Clp0006I 0  Obj 1129.8096 Primal inf 2.6691167e-05 (29) Dual inf 3.18e+10 (525)
Clp0029I End of values pass after 533 iterations
Clp0014I Perturbing problem by 0.001% of 1 - largest nonzero change 2.9926542e-05 ( 0.0014963271%) - largest zero change 2.982246e-05
Clp0000I Optimal - objective value 1123.978
Clp0000I Optimal - objective value 1123.978
Coin0511I After Postsolve, objective 1123.978, infeasibilities - dual 0 (0), primal 0 (0)
Clp0006I 0  Obj 1123.978 Dual inf 22.896938 (6)
Clp0014I Perturbing problem by 0.001% of 1 - largest nonzero change 2.9998143e-05 ( 0.0014999071%) - largest zero change 2.9576128e-05
Clp0000I Optimal - objective value 1123.978
Clp0000I Optimal - objective value 1123.978
Clp0000I Optimal - objective value 1123.978
Coin0511I After Postsolve, objective 1123.978, infeasibilities - dual 0 (0), primal 0 (0)
Clp0032I Optimal objective 1123.977986 - 0 iterations time 5.002, Presolve 0.35, Idiot 4.61

Starting MIP optimization
Cbc0045I MIPStart provided solution with cost 1317.78
Cbc0012I Integer solution of 1317.7815 found by Reduced search after 0 iterations and 0 nodes (1.03 seconds)
Cbc0013I At root node, 0 cuts changed objective from 1123.978 to 1123.978 in 1 passes
Cbc0014I Cut generator 0 (LazyConstraints) - 0 row cuts average 0.0 elements, 0 column cuts (0 active)  in 0.052 seconds - new frequency is 1
Cbc0014I Cut generator 1 (Probing) - 0 row cuts average 0.0 elements, 0 column cuts (0 active)  in 0.000 seconds - new frequency is -100
Cbc0014I Cut generator 2 (Gomory) - 0 row cuts average 0.0 elements, 0 column cuts (0 active)  in 0.000 seconds - new frequency is -100
Cbc0014I Cut generator 3 (Knapsack) - 0 row cuts average 0.0 elements, 0 column cuts (0 active)  in 0.000 seconds - new frequency is -100
Cbc0014I Cut generator 4 (MixedIntegerRounding2) - 0 row cuts average 0.0 elements, 0 column cuts (0 active)  in 0.000 seconds - new frequency is -100
Cbc0014I Cut generator 5 (FlowCover) - 0 row cuts average 0.0 elements, 0 column cuts (0 active)  in 0.000 seconds - new frequency is -100
Cbc0014I Cut generator 6 (TwoMirCuts) - 0 row cuts average 0.0 elements, 0 column cuts (0 active)  in 0.000 seconds - new frequency is -100
Cbc0014I Cut generator 7 (ZeroHalf) - 0 row cuts average 0.0 elements, 0 column cuts (0 active)  in 0.000 seconds - new frequency is -100
Cbc0010I After 1 nodes, 2 on tree, 1317.7815 best solution, best possible 1123.978 (3.33 seconds)
Cbc0010I After 2 nodes, 3 on tree, 1317.7815 best solution, best possible 1123.978 (4.32 seconds)
Cbc0010I After 3 nodes, 4 on tree, 1317.7815 best solution, best possible 1123.978 (5.34 seconds)
Cbc0010I After 4 nodes, 5 on tree, 1317.7815 best solution, best possible 1123.978 (6.29 seconds)
Cbc0010I After 5 nodes, 6 on tree, 1317.7815 best solution, best possible 1123.978 (7.22 seconds)
Cbc0010I After 6 nodes, 7 on tree, 1317.7815 best solution, best possible 1123.978 (8.13 seconds)
Cbc0010I After 7 nodes, 8 on tree, 1317.7815 best solution, best possible 1123.978 (9.27 seconds)
Cbc0010I After 8 nodes, 9 on tree, 1317.7815 best solution, best possible 1123.978 (10.14 seconds)
Cbc0010I After 9 nodes, 10 on tree, 1317.7815 best solution, best possible 1123.978 (11.21 seconds)
Cbc0010I After 11 nodes, 11 on tree, 1317.7815 best solution, best possible 1123.978 (12.59 seconds)
Cbc0010I After 12 nodes, 12 on tree, 1317.7815 best solution, best possible 1123.978 (13.33 seconds)
Cbc0010I After 13 nodes, 12 on tree, 1317.7815 best solution, best possible 1123.978 (14.20 seconds)
Cbc0010I After 14 nodes, 13 on tree, 1317.7815 best solution, best possible 1123.978 (14.97 seconds)
Cbc0010I After 16 nodes, 14 on tree, 1317.7815 best solution, best possible 1123.978 (16.29 seconds)
Cbc0010I After 18 nodes, 15 on tree, 1317.7815 best solution, best possible 1123.978 (17.17 seconds)
Cbc0010I After 20 nodes, 16 on tree, 1317.7815 best solution, best possible 1123.978 (18.49 seconds)
Cbc0010I After 23 nodes, 18 on tree, 1317.7815 best solution, best possible 1123.978 (19.31 seconds)
Cbc0010I After 28 nodes, 16 on tree, 1317.7815 best solution, best possible 1123.978 (20.38 seconds)
Cbc0010I After 30 nodes, 16 on tree, 1317.7815 best solution, best possible 1123.978 (21.23 seconds)
Cbc0010I After 32 nodes, 17 on tree, 1317.7815 best solution, best possible 1123.978 (21.93 seconds)
Cbc0010I After 35 nodes, 17 on tree, 1317.7815 best solution, best possible 1123.978 (22.70 seconds)
Cbc0010I After 41 nodes, 17 on tree, 1317.7815 best solution, best possible 1123.978 (23.68 seconds)
Cbc0010I After 44 nodes, 18 on tree, 1317.7815 best solution, best possible 1123.978 (25.04 seconds)
Cbc0010I After 45 nodes, 19 on tree, 1317.7815 best solution, best possible 1123.978 (25.92 seconds)
Cbc0010I After 47 nodes, 19 on tree, 1317.7815 best solution, best possible 1123.978 (27.15 seconds)
Cbc0010I After 49 nodes, 20 on tree, 1317.7815 best solution, best possible 1123.978 (28.41 seconds)
Cbc0010I After 51 nodes, 21 on tree, 1317.7815 best solution, best possible 1123.978 (29.61 seconds)
Cbc0010I After 53 nodes, 22 on tree, 1317.7815 best solution, best possible 1123.978 (30.82 seconds)
Cbc0010I After 55 nodes, 24 on tree, 1317.7815 best solution, best possible 1123.978 (31.85 seconds)
Cbc0010I After 57 nodes, 25 on tree, 1317.7815 best solution, best possible 1123.978 (32.86 seconds)
Cbc0010I After 59 nodes, 26 on tree, 1317.7815 best solution, best possible 1123.978 (33.76 seconds)
Cbc0010I After 61 nodes, 26 on tree, 1317.7815 best solution, best possible 1123.978 (34.88 seconds)
Cbc0010I After 63 nodes, 27 on tree, 1317.7815 best solution, best possible 1123.978 (35.88 seconds)
Cbc0010I After 65 nodes, 29 on tree, 1317.7815 best solution, best possible 1123.978 (36.77 seconds)
Cbc0010I After 67 nodes, 29 on tree, 1317.7815 best solution, best possible 1123.978 (37.59 seconds)
Cbc0010I After 70 nodes, 31 on tree, 1317.7815 best solution, best possible 1123.978 (38.60 seconds)
Cbc0010I After 73 nodes, 33 on tree, 1317.7815 best solution, best possible 1123.978 (39.32 seconds)
Cbc0010I After 77 nodes, 35 on tree, 1317.7815 best solution, best possible 1123.978 (40.17 seconds)
Cbc0010I After 81 nodes, 37 on tree, 1317.7815 best solution, best possible 1123.978 (41.07 seconds)
Cbc0010I After 86 nodes, 39 on tree, 1317.7815 best solution, best possible 1123.978 (41.88 seconds)
Cbc0010I After 89 nodes, 41 on tree, 1317.7815 best solution, best possible 1123.978 (42.70 seconds)
Cbc0010I After 93 nodes, 41 on tree, 1317.7815 best solution, best possible 1123.978 (43.48 seconds)
Cbc0010I After 97 nodes, 41 on tree, 1317.7815 best solution, best possible 1123.978 (44.31 seconds)
Cbc0010I After 101 nodes, 40 on tree, 1317.7815 best solution, best possible 1123.978 (45.02 seconds)
Cbc0010I After 106 nodes, 43 on tree, 1317.7815 best solution, best possible 1123.978 (45.78 seconds)
Cbc0010I After 109 nodes, 44 on tree, 1317.7815 best solution, best possible 1123.978 (46.56 seconds)
Cbc0010I After 114 nodes, 43 on tree, 1317.7815 best solution, best possible 1123.978 (47.84 seconds)
Cbc0010I After 116 nodes, 43 on tree, 1317.7815 best solution, best possible 1123.978 (48.66 seconds)
Cbc0010I After 118 nodes, 43 on tree, 1317.7815 best solution, best possible 1123.978 (49.43 seconds)
Cbc0010I After 121 nodes, 43 on tree, 1317.7815 best solution, best possible 1123.978 (50.14 seconds)
Cbc0010I After 122 nodes, 44 on tree, 1317.7815 best solution, best possible 1123.978 (50.97 seconds)
Cbc0010I After 125 nodes, 43 on tree, 1317.7815 best solution, best possible 1123.978 (51.72 seconds)
Cbc0010I After 127 nodes, 45 on tree, 1317.7815 best solution, best possible 1123.978 (52.43 seconds)
Cbc0010I After 130 nodes, 46 on tree, 1317.7815 best solution, best possible 1123.978 (53.43 seconds)
Cbc0010I After 132 nodes, 47 on tree, 1317.7815 best solution, best possible 1123.978 (54.32 seconds)
Cbc0010I After 134 nodes, 46 on tree, 1317.7815 best solution, best possible 1123.978 (55.02 seconds)
Cbc0010I After 137 nodes, 46 on tree, 1317.7815 best solution, best possible 1123.978 (56.02 seconds)
Cbc0010I After 141 nodes, 45 on tree, 1317.7815 best solution, best possible 1123.978 (56.76 seconds)
Cbc0010I After 145 nodes, 44 on tree, 1317.7815 best solution, best possible 1123.978 (57.86 seconds)
Cbc0010I After 148 nodes, 45 on tree, 1317.7815 best solution, best possible 1123.978 (58.79 seconds)
Cbc0010I After 154 nodes, 42 on tree, 1317.7815 best solution, best possible 1123.978 (59.61 seconds)
Cbc0010I After 158 nodes, 42 on tree, 1317.7815 best solution, best possible 1123.978 (60.57 seconds)
Cbc0010I After 161 nodes, 45 on tree, 1317.7815 best solution, best possible 1123.978 (61.39 seconds)
Cbc0010I After 163 nodes, 45 on tree, 1317.7815 best solution, best possible 1123.978 (62.51 seconds)
Cbc0010I After 165 nodes, 46 on tree, 1317.7815 best solution, best possible 1123.978 (63.38 seconds)
Cbc0010I After 168 nodes, 48 on tree, 1317.7815 best solution, best possible 1123.978 (64.09 seconds)
Cbc0010I After 172 nodes, 51 on tree, 1317.7815 best solution, best possible 1123.978 (64.96 seconds)
Cbc0010I After 175 nodes, 51 on tree, 1317.7815 best solution, best possible 1123.978 (65.98 seconds)
Cbc0010I After 179 nodes, 50 on tree, 1317.7815 best solution, best possible 1123.978 (66.89 seconds)
Cbc0010I After 182 nodes, 52 on tree, 1317.7815 best solution, best possible 1123.978 (67.83 seconds)
Cbc0010I After 185 nodes, 53 on tree, 1317.7815 best solution, best possible 1123.978 (68.74 seconds)
Cbc0010I After 190 nodes, 52 on tree, 1317.7815 best solution, best possible 1123.978 (69.56 seconds)
Cbc0010I After 195 nodes, 52 on tree, 1317.7815 best solution, best possible 1123.978 (70.28 seconds)
Cbc0010I After 201 nodes, 55 on tree, 1317.7815 best solution, best possible 1123.978 (71.08 seconds)
Cbc0010I After 206 nodes, 54 on tree, 1317.7815 best solution, best possible 1123.978 (71.92 seconds)
Cbc0010I After 210 nodes, 53 on tree, 1317.7815 best solution, best possible 1123.978 (72.80 seconds)
Cbc0010I After 215 nodes, 51 on tree, 1317.7815 best solution, best possible 1123.978 (73.55 seconds)
Cbc0010I After 219 nodes, 51 on tree, 1317.7815 best solution, best possible 1123.978 (74.34 seconds)
Cbc0010I After 223 nodes, 51 on tree, 1317.7815 best solution, best possible 1123.978 (75.04 seconds)
Cbc0010I After 226 nodes, 52 on tree, 1317.7815 best solution, best possible 1123.978 (75.79 seconds)
Cbc0010I After 233 nodes, 50 on tree, 1317.7815 best solution, best possible 1123.978 (76.59 seconds)
Cbc0010I After 240 nodes, 49 on tree, 1317.7815 best solution, best possible 1123.978 (77.47 seconds)
Cbc0010I After 243 nodes, 51 on tree, 1317.7815 best solution, best possible 1123.978 (78.36 seconds)
Cbc0010I After 247 nodes, 53 on tree, 1317.7815 best solution, best possible 1123.978 (79.12 seconds)
Cbc0010I After 254 nodes, 50 on tree, 1317.7815 best solution, best possible 1123.978 (79.91 seconds)
Cbc0010I After 259 nodes, 51 on tree, 1317.7815 best solution, best possible 1123.978 (80.78 seconds)
Cbc0010I After 265 nodes, 51 on tree, 1317.7815 best solution, best possible 1123.978 (81.86 seconds)
Cbc0010I After 267 nodes, 51 on tree, 1317.7815 best solution, best possible 1123.978 (82.89 seconds)
Cbc0010I After 272 nodes, 52 on tree, 1317.7815 best solution, best possible 1123.978 (83.88 seconds)
Cbc0010I After 279 nodes, 50 on tree, 1317.7815 best solution, best possible 1123.978 (84.83 seconds)
Cbc0010I After 285 nodes, 50 on tree, 1317.7815 best solution, best possible 1123.978 (85.77 seconds)
Cbc0010I After 291 nodes, 50 on tree, 1317.7815 best solution, best possible 1123.978 (86.50 seconds)
Cbc0010I After 294 nodes, 51 on tree, 1317.7815 best solution, best possible 1123.978 (87.24 seconds)
Cbc0010I After 299 nodes, 52 on tree, 1317.7815 best solution, best possible 1123.978 (88.07 seconds)
Cbc0010I After 304 nodes, 55 on tree, 1317.7815 best solution, best possible 1123.978 (88.97 seconds)
Cbc0010I After 308 nodes, 55 on tree, 1317.7815 best solution, best possible 1123.978 (90.03 seconds)
Cbc0010I After 313 nodes, 55 on tree, 1317.7815 best solution, best possible 1123.978 (90.81 seconds)
Cbc0010I After 319 nodes, 55 on tree, 1317.7815 best solution, best possible 1123.978 (91.51 seconds)
Cbc0010I After 322 nodes, 57 on tree, 1317.7815 best solution, best possible 1123.978 (92.53 seconds)
Cbc0010I After 325 nodes, 56 on tree, 1317.7815 best solution, best possible 1123.978 (93.30 seconds)
Cbc0010I After 329 nodes, 59 on tree, 1317.7815 best solution, best possible 1123.978 (94.22 seconds)
Cbc0010I After 334 nodes, 61 on tree, 1317.7815 best solution, best possible 1123.978 (95.16 seconds)
Cbc0010I After 339 nodes, 60 on tree, 1317.7815 best solution, best possible 1123.978 (95.89 seconds)
Cbc0010I After 342 nodes, 59 on tree, 1317.7815 best solution, best possible 1123.978 (96.61 seconds)
Cbc0010I After 348 nodes, 59 on tree, 1317.7815 best solution, best possible 1123.978 (97.40 seconds)
Cbc0010I After 350 nodes, 60 on tree, 1317.7815 best solution, best possible 1123.978 (98.14 seconds)
Cbc0010I After 354 nodes, 60 on tree, 1317.7815 best solution, best possible 1123.978 (98.89 seconds)
Cbc0010I After 357 nodes, 60 on tree, 1317.7815 best solution, best possible 1123.978 (99.87 seconds)
Cbc0010I After 363 nodes, 58 on tree, 1317.7815 best solution, best possible 1123.978 (100.57 seconds)
Cbc0010I After 367 nodes, 56 on tree, 1317.7815 best solution, best possible 1123.978 (101.34 seconds)
Cbc0010I After 372 nodes, 54 on tree, 1317.7815 best solution, best possible 1123.978 (102.12 seconds)
Cbc0010I After 377 nodes, 53 on tree, 1317.7815 best solution, best possible 1123.978 (103.18 seconds)
Cbc0010I After 385 nodes, 52 on tree, 1317.7815 best solution, best possible 1123.978 (104.24 seconds)
Cbc0010I After 389 nodes, 53 on tree, 1317.7815 best solution, best possible 1123.978 (105.03 seconds)
Cbc0010I After 391 nodes, 54 on tree, 1317.7815 best solution, best possible 1123.978 (105.83 seconds)
Cbc0010I After 395 nodes, 56 on tree, 1317.7815 best solution, best possible 1123.978 (106.72 seconds)
Cbc0010I After 397 nodes, 57 on tree, 1317.7815 best solution, best possible 1123.978 (108.03 seconds)
Cbc0010I After 402 nodes, 57 on tree, 1317.7815 best solution, best possible 1123.978 (108.90 seconds)
Cbc0010I After 406 nodes, 55 on tree, 1317.7815 best solution, best possible 1123.978 (109.85 seconds)
Cbc0010I After 409 nodes, 58 on tree, 1317.7815 best solution, best possible 1123.978 (110.69 seconds)
Cbc0010I After 416 nodes, 55 on tree, 1317.7815 best solution, best possible 1123.978 (111.54 seconds)
Cbc0010I After 421 nodes, 56 on tree, 1317.7815 best solution, best possible 1123.978 (112.38 seconds)
Cbc0010I After 427 nodes, 53 on tree, 1317.7815 best solution, best possible 1123.978 (113.10 seconds)
Cbc0010I After 430 nodes, 56 on tree, 1317.7815 best solution, best possible 1123.978 (113.99 seconds)
Cbc0010I After 434 nodes, 56 on tree, 1317.7815 best solution, best possible 1123.978 (114.97 seconds)
Cbc0010I After 437 nodes, 57 on tree, 1317.7815 best solution, best possible 1123.978 (115.70 seconds)
Cbc0010I After 440 nodes, 58 on tree, 1317.7815 best solution, best possible 1123.978 (116.64 seconds)
Cbc0010I After 442 nodes, 59 on tree, 1317.7815 best solution, best possible 1123.978 (117.58 seconds)
Cbc0010I After 445 nodes, 60 on tree, 1317.7815 best solution, best possible 1123.978 (118.64 seconds)
Cbc0010I After 447 nodes, 61 on tree, 1317.7815 best solution, best possible 1123.978 (119.44 seconds)
Cbc0010I After 451 nodes, 64 on tree, 1317.7815 best solution, best possible 1123.978 (120.32 seconds)
Cbc0010I After 454 nodes, 65 on tree, 1317.7815 best solution, best possible 1123.978 (121.10 seconds)
Cbc0010I After 457 nodes, 66 on tree, 1317.7815 best solution, best possible 1123.978 (121.83 seconds)
Cbc0010I After 460 nodes, 67 on tree, 1317.7815 best solution, best possible 1123.978 (122.62 seconds)
Cbc0010I After 463 nodes, 68 on tree, 1317.7815 best solution, best possible 1123.978 (123.46 seconds)
Cbc0010I After 468 nodes, 67 on tree, 1317.7815 best solution, best possible 1123.978 (124.37 seconds)
Cbc0010I After 472 nodes, 69 on tree, 1317.7815 best solution, best possible 1123.978 (125.09 seconds)
Cbc0010I After 475 nodes, 72 on tree, 1317.7815 best solution, best possible 1123.978 (125.95 seconds)
Cbc0010I After 480 nodes, 75 on tree, 1317.7815 best solution, best possible 1123.978 (126.83 seconds)
Cbc0010I After 484 nodes, 78 on tree, 1317.7815 best solution, best possible 1123.978 (127.84 seconds)
Cbc0010I After 487 nodes, 78 on tree, 1317.7815 best solution, best possible 1123.978 (128.62 seconds)
Cbc0010I After 491 nodes, 79 on tree, 1317.7815 best solution, best possible 1123.978 (129.34 seconds)
Cbc0010I After 495 nodes, 81 on tree, 1317.7815 best solution, best possible 1123.978 (130.15 seconds)
Cbc0010I After 500 nodes, 83 on tree, 1317.7815 best solution, best possible 1123.978 (131.20 seconds)
Cbc0010I After 504 nodes, 81 on tree, 1317.7815 best solution, best possible 1123.978 (131.92 seconds)
Cbc0010I After 510 nodes, 80 on tree, 1317.7815 best solution, best possible 1123.978 (132.89 seconds)
Cbc0010I After 514 nodes, 80 on tree, 1317.7815 best solution, best possible 1123.978 (133.93 seconds)
Cbc0010I After 518 nodes, 82 on tree, 1317.7815 best solution, best possible 1123.978 (134.89 seconds)
Cbc0010I After 523 nodes, 82 on tree, 1317.7815 best solution, best possible 1123.978 (135.86 seconds)
Cbc0010I After 527 nodes, 82 on tree, 1317.7815 best solution, best possible 1123.978 (136.66 seconds)
Cbc0010I After 533 nodes, 82 on tree, 1317.7815 best solution, best possible 1123.978 (137.41 seconds)
Cbc0010I After 536 nodes, 84 on tree, 1317.7815 best solution, best possible 1123.978 (138.27 seconds)
Cbc0010I After 543 nodes, 84 on tree, 1317.7815 best solution, best possible 1123.978 (139.19 seconds)
Cbc0010I After 546 nodes, 85 on tree, 1317.7815 best solution, best possible 1123.978 (140.12 seconds)
Cbc0010I After 549 nodes, 86 on tree, 1317.7815 best solution, best possible 1123.978 (140.83 seconds)
Cbc0010I After 553 nodes, 87 on tree, 1317.7815 best solution, best possible 1123.978 (141.58 seconds)
Cbc0010I After 560 nodes, 85 on tree, 1317.7815 best solution, best possible 1123.978 (142.47 seconds)
Cbc0010I After 562 nodes, 86 on tree, 1317.7815 best solution, best possible 1123.978 (143.28 seconds)
Cbc0010I After 565 nodes, 88 on tree, 1317.7815 best solution, best possible 1123.978 (144.37 seconds)
Cbc0010I After 568 nodes, 87 on tree, 1317.7815 best solution, best possible 1123.978 (145.17 seconds)
Cbc0010I After 572 nodes, 88 on tree, 1317.7815 best solution, best possible 1123.978 (145.90 seconds)
Cbc0010I After 580 nodes, 89 on tree, 1317.7815 best solution, best possible 1123.978 (146.68 seconds)
Cbc0010I After 583 nodes, 90 on tree, 1317.7815 best solution, best possible 1123.978 (147.47 seconds)
Cbc0010I After 586 nodes, 90 on tree, 1317.7815 best solution, best possible 1123.978 (148.44 seconds)
Cbc0010I After 590 nodes, 92 on tree, 1317.7815 best solution, best possible 1123.978 (149.17 seconds)
Cbc0010I After 594 nodes, 91 on tree, 1317.7815 best solution, best possible 1123.978 (149.91 seconds)
Cbc0010I After 597 nodes, 93 on tree, 1317.7815 best solution, best possible 1123.978 (150.89 seconds)
Cbc0010I After 600 nodes, 94 on tree, 1317.7815 best solution, best possible 1123.978 (152.00 seconds)
Cbc0010I After 604 nodes, 95 on tree, 1317.7815 best solution, best possible 1123.978 (152.72 seconds)
Cbc0010I After 608 nodes, 95 on tree, 1317.7815 best solution, best possible 1123.978 (153.56 seconds)
Cbc0010I After 614 nodes, 99 on tree, 1317.7815 best solution, best possible 1123.978 (154.60 seconds)
Cbc0010I After 616 nodes, 100 on tree, 1317.7815 best solution, best possible 1123.978 (155.38 seconds)
Cbc0010I After 620 nodes, 99 on tree, 1317.7815 best solution, best possible 1123.978 (156.27 seconds)
Cbc0010I After 624 nodes, 99 on tree, 1317.7815 best solution, best possible 1123.978 (157.17 seconds)
Cbc0010I After 636 nodes, 98 on tree, 1317.7815 best solution, best possible 1123.978 (158.01 seconds)
Cbc0010I After 638 nodes, 99 on tree, 1317.7815 best solution, best possible 1123.978 (158.98 seconds)
Cbc0010I After 640 nodes, 100 on tree, 1317.7815 best solution, best possible 1123.978 (159.72 seconds)
Cbc0010I After 642 nodes, 101 on tree, 1317.7815 best solution, best possible 1123.978 (160.43 seconds)
Cbc0010I After 645 nodes, 101 on tree, 1317.7815 best solution, best possible 1123.978 (161.17 seconds)
Cbc0010I After 649 nodes, 104 on tree, 1317.7815 best solution, best possible 1123.978 (162.25 seconds)
Cbc0010I After 653 nodes, 106 on tree, 1317.7815 best solution, best possible 1123.978 (163.04 seconds)
Cbc0010I After 656 nodes, 109 on tree, 1317.7815 best solution, best possible 1123.978 (163.98 seconds)
Cbc0010I After 664 nodes, 105 on tree, 1317.7815 best solution, best possible 1123.978 (164.95 seconds)
Cbc0010I After 668 nodes, 105 on tree, 1317.7815 best solution, best possible 1123.978 (165.82 seconds)
Cbc0010I After 671 nodes, 107 on tree, 1317.7815 best solution, best possible 1123.978 (166.94 seconds)
Cbc0010I After 674 nodes, 107 on tree, 1317.7815 best solution, best possible 1123.978 (167.72 seconds)
Cbc0010I After 677 nodes, 109 on tree, 1317.7815 best solution, best possible 1123.978 (168.48 seconds)
Cbc0010I After 679 nodes, 110 on tree, 1317.7815 best solution, best possible 1123.978 (169.54 seconds)
Cbc0010I After 682 nodes, 110 on tree, 1317.7815 best solution, best possible 1123.978 (170.50 seconds)
Cbc0010I After 686 nodes, 113 on tree, 1317.7815 best solution, best possible 1123.978 (171.33 seconds)
Cbc0010I After 693 nodes, 117 on tree, 1317.7815 best solution, best possible 1123.978 (172.32 seconds)
Cbc0010I After 695 nodes, 117 on tree, 1317.7815 best solution, best possible 1123.978 (173.08 seconds)
Cbc0010I After 697 nodes, 118 on tree, 1317.7815 best solution, best possible 1123.978 (173.92 seconds)
Cbc0010I After 702 nodes, 122 on tree, 1317.7815 best solution, best possible 1123.978 (174.66 seconds)
Cbc0010I After 705 nodes, 123 on tree, 1317.7815 best solution, best possible 1123.978 (175.46 seconds)
Cbc0010I After 709 nodes, 123 on tree, 1317.7815 best solution, best possible 1123.978 (176.38 seconds)
Cbc0010I After 715 nodes, 122 on tree, 1317.7815 best solution, best possible 1123.978 (177.25 seconds)
Cbc0010I After 721 nodes, 122 on tree, 1317.7815 best solution, best possible 1123.978 (178.31 seconds)
Cbc0010I After 730 nodes, 120 on tree, 1317.7815 best solution, best possible 1123.978 (179.03 seconds)
Cbc0010I After 734 nodes, 122 on tree, 1317.7815 best solution, best possible 1123.978 (179.85 seconds)
Cbc0010I After 740 nodes, 121 on tree, 1317.7815 best solution, best possible 1123.978 (180.55 seconds)
Cbc0010I After 747 nodes, 120 on tree, 1317.7815 best solution, best possible 1123.978 (181.37 seconds)
Cbc0010I After 752 nodes, 121 on tree, 1317.7815 best solution, best possible 1123.978 (182.45 seconds)
Cbc0010I After 757 nodes, 120 on tree, 1317.7815 best solution, best possible 1123.978 (183.20 seconds)
Cbc0010I After 762 nodes, 119 on tree, 1317.7815 best solution, best possible 1123.978 (184.18 seconds)
Cbc0010I After 766 nodes, 119 on tree, 1317.7815 best solution, best possible 1123.978 (185.05 seconds)
Cbc0010I After 771 nodes, 120 on tree, 1317.7815 best solution, best possible 1123.978 (186.49 seconds)
Cbc0010I After 773 nodes, 121 on tree, 1317.7815 best solution, best possible 1123.978 (187.45 seconds)
Cbc0010I After 777 nodes, 122 on tree, 1317.7815 best solution, best possible 1123.978 (188.18 seconds)
Cbc0010I After 782 nodes, 121 on tree, 1317.7815 best solution, best possible 1123.978 (188.98 seconds)
Cbc0010I After 786 nodes, 121 on tree, 1317.7815 best solution, best possible 1123.978 (189.83 seconds)
Cbc0010I After 789 nodes, 123 on tree, 1317.7815 best solution, best possible 1123.978 (190.93 seconds)
Cbc0010I After 792 nodes, 123 on tree, 1317.7815 best solution, best possible 1123.978 (191.80 seconds)
Cbc0010I After 796 nodes, 122 on tree, 1317.7815 best solution, best possible 1123.978 (192.61 seconds)
Cbc0010I After 802 nodes, 122 on tree, 1317.7815 best solution, best possible 1123.978 (193.33 seconds)
Cbc0010I After 806 nodes, 123 on tree, 1317.7815 best solution, best possible 1123.978 (194.41 seconds)
Cbc0010I After 813 nodes, 121 on tree, 1317.7815 best solution, best possible 1123.978 (195.42 seconds)
Cbc0010I After 815 nodes, 123 on tree, 1317.7815 best solution, best possible 1123.978 (196.14 seconds)
Cbc0010I After 817 nodes, 125 on tree, 1317.7815 best solution, best possible 1123.978 (196.87 seconds)
Cbc0010I After 820 nodes, 125 on tree, 1317.7815 best solution, best possible 1123.978 (197.68 seconds)
Cbc0010I After 823 nodes, 126 on tree, 1317.7815 best solution, best possible 1123.978 (198.41 seconds)
Cbc0010I After 827 nodes, 126 on tree, 1317.7815 best solution, best possible 1123.978 (199.13 seconds)
Cbc0010I After 837 nodes, 124 on tree, 1317.7815 best solution, best possible 1123.978 (200.24 seconds)
Cbc0010I After 841 nodes, 124 on tree, 1317.7815 best solution, best possible 1123.978 (201.31 seconds)
Cbc0010I After 843 nodes, 125 on tree, 1317.7815 best solution, best possible 1123.978 (202.14 seconds)
Cbc0010I After 847 nodes, 128 on tree, 1317.7815 best solution, best possible 1123.978 (202.94 seconds)
Cbc0010I After 854 nodes, 128 on tree, 1317.7815 best solution, best possible 1123.978 (203.87 seconds)
Cbc0010I After 861 nodes, 126 on tree, 1317.7815 best solution, best possible 1123.978 (204.63 seconds)
Cbc0010I After 866 nodes, 127 on tree, 1317.7815 best solution, best possible 1123.978 (205.57 seconds)
Cbc0010I After 872 nodes, 126 on tree, 1317.7815 best solution, best possible 1123.978 (206.32 seconds)
Cbc0010I After 876 nodes, 126 on tree, 1317.7815 best solution, best possible 1123.978 (207.06 seconds)
Cbc0010I After 879 nodes, 128 on tree, 1317.7815 best solution, best possible 1123.978 (207.93 seconds)
Cbc0010I After 882 nodes, 129 on tree, 1317.7815 best solution, best possible 1123.978 (208.70 seconds)
Cbc0010I After 885 nodes, 130 on tree, 1317.7815 best solution, best possible 1123.978 (209.42 seconds)
Cbc0010I After 893 nodes, 130 on tree, 1317.7815 best solution, best possible 1123.978 (210.24 seconds)
Cbc0010I After 895 nodes, 132 on tree, 1317.7815 best solution, best possible 1123.978 (211.03 seconds)
Cbc0010I After 899 nodes, 131 on tree, 1317.7815 best solution, best possible 1123.978 (211.82 seconds)
Cbc0010I After 903 nodes, 131 on tree, 1317.7815 best solution, best possible 1123.978 (212.55 seconds)
Cbc0010I After 907 nodes, 132 on tree, 1317.7815 best solution, best possible 1123.978 (213.41 seconds)
Cbc0010I After 912 nodes, 131 on tree, 1317.7815 best solution, best possible 1123.978 (214.16 seconds)
Cbc0010I After 921 nodes, 128 on tree, 1317.7815 best solution, best possible 1123.978 (214.88 seconds)
Cbc0010I After 925 nodes, 128 on tree, 1317.7815 best solution, best possible 1123.978 (215.61 seconds)
Cbc0010I After 927 nodes, 129 on tree, 1317.7815 best solution, best possible 1123.978 (216.36 seconds)
Cbc0010I After 931 nodes, 129 on tree, 1317.7815 best solution, best possible 1123.978 (217.09 seconds)
Cbc0010I After 934 nodes, 130 on tree, 1317.7815 best solution, best possible 1123.978 (217.89 seconds)
Cbc0010I After 937 nodes, 132 on tree, 1317.7815 best solution, best possible 1123.978 (218.88 seconds)
Cbc0010I After 939 nodes, 133 on tree, 1317.7815 best solution, best possible 1123.978 (219.96 seconds)
Cbc0010I After 944 nodes, 133 on tree, 1317.7815 best solution, best possible 1123.978 (221.09 seconds)
Cbc0010I After 951 nodes, 131 on tree, 1317.7815 best solution, best possible 1123.978 (221.83 seconds)
Cbc0010I After 956 nodes, 131 on tree, 1317.7815 best solution, best possible 1123.978 (222.79 seconds)
Cbc0010I After 960 nodes, 133 on tree, 1317.7815 best solution, best possible 1123.978 (223.78 seconds)
Cbc0010I After 963 nodes, 134 on tree, 1317.7815 best solution, best possible 1123.978 (224.83 seconds)
Cbc0010I After 966 nodes, 136 on tree, 1317.7815 best solution, best possible 1123.978 (225.83 seconds)
Cbc0010I After 970 nodes, 137 on tree, 1317.7815 best solution, best possible 1123.978 (226.73 seconds)
Cbc0010I After 973 nodes, 138 on tree, 1317.7815 best solution, best possible 1123.978 (227.50 seconds)
Cbc0010I After 976 nodes, 139 on tree, 1317.7815 best solution, best possible 1123.978 (228.48 seconds)
Cbc0010I After 979 nodes, 140 on tree, 1317.7815 best solution, best possible 1123.978 (229.40 seconds)
Cbc0010I After 983 nodes, 144 on tree, 1317.7815 best solution, best possible 1123.978 (230.31 seconds)
Cbc0010I After 986 nodes, 145 on tree, 1317.7815 best solution, best possible 1123.978 (231.34 seconds)
Cbc0010I After 989 nodes, 147 on tree, 1317.7815 best solution, best possible 1123.978 (232.19 seconds)
Cbc0010I After 991 nodes, 147 on tree, 1317.7815 best solution, best possible 1123.978 (233.22 seconds)
Cbc0010I After 995 nodes, 148 on tree, 1317.7815 best solution, best possible 1123.978 (234.16 seconds)
Cbc0010I After 999 nodes, 150 on tree, 1317.7815 best solution, best possible 1123.978 (234.96 seconds)
Cbc0010I After 1001 nodes, 151 on tree, 1317.7815 best solution, best possible 1123.978 (235.70 seconds)
Cbc0010I After 1002 nodes, 151 on tree, 1317.7815 best solution, best possible 1126.2014 (236.53 seconds)
Cbc0010I After 1003 nodes, 152 on tree, 1317.7815 best solution, best possible 1126.2014 (237.29 seconds)
Cbc0010I After 1004 nodes, 153 on tree, 1317.7815 best solution, best possible 1126.2014 (238.05 seconds)
Cbc0010I After 1005 nodes, 154 on tree, 1317.7815 best solution, best possible 1126.2014 (238.87 seconds)
Cbc0010I After 1007 nodes, 156 on tree, 1317.7815 best solution, best possible 1126.2014 (239.91 seconds)
Cbc0010I After 1009 nodes, 158 on tree, 1317.7815 best solution, best possible 1126.2014 (240.96 seconds)
Cbc0010I After 1011 nodes, 160 on tree, 1317.7815 best solution, best possible 1126.2014 (242.23 seconds)
Cbc0010I After 1013 nodes, 162 on tree, 1317.7815 best solution, best possible 1126.2014 (243.33 seconds)
Cbc0010I After 1015 nodes, 164 on tree, 1317.7815 best solution, best possible 1126.2014 (244.27 seconds)
Cbc0010I After 1017 nodes, 166 on tree, 1317.7815 best solution, best possible 1126.2014 (245.13 seconds)
Cbc0010I After 1019 nodes, 168 on tree, 1317.7815 best solution, best possible 1126.2014 (245.91 seconds)
Cbc0010I After 1021 nodes, 170 on tree, 1317.7815 best solution, best possible 1126.2014 (246.65 seconds)
Cbc0010I After 1023 nodes, 172 on tree, 1317.7815 best solution, best possible 1126.2014 (247.40 seconds)
Cbc0010I After 1025 nodes, 174 on tree, 1317.7815 best solution, best possible 1126.2014 (248.21 seconds)
Cbc0010I After 1027 nodes, 176 on tree, 1317.7815 best solution, best possible 1126.2014 (249.07 seconds)
Cbc0010I After 1029 nodes, 178 on tree, 1317.7815 best solution, best possible 1126.2014 (250.29 seconds)
Cbc0010I After 1030 nodes, 179 on tree, 1317.7815 best solution, best possible 1126.2014 (251.00 seconds)
Cbc0010I After 1031 nodes, 180 on tree, 1317.7815 best solution, best possible 1126.2014 (251.84 seconds)
Cbc0010I After 1033 nodes, 182 on tree, 1317.7815 best solution, best possible 1126.2014 (253.16 seconds)
Cbc0010I After 1035 nodes, 184 on tree, 1317.7815 best solution, best possible 1126.2014 (254.09 seconds)
Cbc0010I After 1037 nodes, 186 on tree, 1317.7815 best solution, best possible 1126.2014 (254.96 seconds)
Cbc0010I After 1038 nodes, 187 on tree, 1317.7815 best solution, best possible 1126.2014 (255.69 seconds)
Cbc0010I After 1040 nodes, 189 on tree, 1317.7815 best solution, best possible 1126.2014 (257.01 seconds)
Cbc0010I After 1041 nodes, 190 on tree, 1317.7815 best solution, best possible 1126.2014 (257.84 seconds)
Cbc0010I After 1043 nodes, 192 on tree, 1317.7815 best solution, best possible 1126.2014 (258.58 seconds)
Cbc0010I After 1045 nodes, 194 on tree, 1317.7815 best solution, best possible 1126.2014 (259.66 seconds)
Cbc0010I After 1047 nodes, 196 on tree, 1317.7815 best solution, best possible 1126.2014 (260.53 seconds)
Cbc0010I After 1049 nodes, 198 on tree, 1317.7815 best solution, best possible 1126.2014 (261.58 seconds)
Cbc0010I After 1051 nodes, 200 on tree, 1317.7815 best solution, best possible 1126.2014 (262.30 seconds)
Cbc0010I After 1053 nodes, 202 on tree, 1317.7815 best solution, best possible 1126.2014 (263.09 seconds)
Cbc0010I After 1055 nodes, 204 on tree, 1317.7815 best solution, best possible 1126.2014 (263.92 seconds)
Cbc0010I After 1058 nodes, 207 on tree, 1317.7815 best solution, best possible 1126.2014 (264.96 seconds)
Cbc0010I After 1060 nodes, 209 on tree, 1317.7815 best solution, best possible 1126.2014 (265.81 seconds)
Cbc0010I After 1062 nodes, 211 on tree, 1317.7815 best solution, best possible 1126.2014 (266.60 seconds)
Cbc0010I After 1065 nodes, 214 on tree, 1317.7815 best solution, best possible 1126.2014 (267.57 seconds)
Cbc0010I After 1067 nodes, 216 on tree, 1317.7815 best solution, best possible 1126.2014 (268.42 seconds)
Cbc0010I After 1069 nodes, 218 on tree, 1317.7815 best solution, best possible 1126.2014 (269.15 seconds)
Cbc0010I After 1071 nodes, 220 on tree, 1317.7815 best solution, best possible 1126.2014 (270.18 seconds)
Cbc0010I After 1073 nodes, 222 on tree, 1317.7815 best solution, best possible 1126.2014 (270.89 seconds)
Cbc0010I After 1076 nodes, 225 on tree, 1317.7815 best solution, best possible 1126.2014 (271.76 seconds)
Cbc0010I After 1078 nodes, 227 on tree, 1317.7815 b